r = [
0,92,33,76,15,106,106,18,90,60,93,0
];
p = [
0,29,12,6,12,16,14,11,12,19,29,0
];
e = [
0,17,18,6,20,9,11,17,19,20,8,0
];
d = [
0,171,72,125,60,122,120,46,174,109,149,197
];
d_bar = [
0,197,83,130,71,136,133,56,185,126,175,197
];
w = [
0,0.653846154,1.636363636,1.2,1.818181818,0.642857143,0.846153846,1.7,1.727272727,1.176470588,0.307692308,0
];
